==> MAXTIME              = 3600
==> OUTPUTLOG            = 1
==> ROOTPRESOLVE         = 1
FICO Xpress v8.5.9, solve started 23:47:31, Jun 8, 2019
Maximizing MILP Seating model
Original problem has:
       230 rows          300 cols         7440 elements       300 globals
Presolved problem has:
       103 rows          204 cols         2431 elements       198 globals
LP relaxation tightened
Will try to keep branch and bound tree memory usage below 7.2GB
 *** Heuristic solution found:    22.000000      Time: 0 ***
Starting concurrent solve with dual

 Concurrent-Solve,   0s
            Dual        
    objective   dual inf
 D  102.00000   .0000000
------- optimal --------
Concurrent statistics:
      Dual: 34 simplex iterations, 0.00s
Optimal solution found
 
   Its         Obj Value      S   Ninf  Nneg   Sum Dual Inf  Time
    34        102.000000      D      0     0        .000000     0
Dual solved problem
  34 simplex iterations in 0s

Final objective                         : 1.020000000000000e+02
  Max primal violation      (abs / rel) : 1.110e-16 / 9.869e-17
  Max dual violation        (abs / rel) :       0.0 /       0.0
  Max complementarity viol. (abs / rel) :       0.0 /       0.0
All values within tolerances

Starting root cutting & heuristics
 
 Its Type    BestSoln    BestBound   Sols    Add    Del     Gap     GInf   Time
   1  K     22.000000   102.000000      1     99      0   78.43%      29      0
   2  K     22.000000   102.000000      1    111     81   78.43%      43      0
   3  K     22.000000   102.000000      1     92    101   78.43%      48      0
b           28.000000   102.000000      2                 72.55%       0      0
   4  K     28.000000   102.000000      2     87     94   72.55%      35      0
   5  K     28.000000   102.000000      2    100     83   72.55%      49      0
   6  K     28.000000   102.000000      2     93     97   72.55%      47      0
   7  K     28.000000   102.000000      2     89     88   72.55%      58      0
b           35.000000   102.000000      3                 65.69%       0      0
   8  K     35.000000   102.000000      3     81     91   65.69%      37      0
   9  K     35.000000   102.000000      3     95     87   65.69%      48      0
  10  K     35.000000   102.000000      3     97     89   65.69%      58      0
  11  K     35.000000   102.000000      3     83     86   65.69%      67      0
  12  K     35.000000   102.000000      3     93     82   65.69%      72      0
  13  K     35.000000   102.000000      3     87     85   65.69%      76      0
  14  K     35.000000   102.000000      3      2     83   65.69%      39      0
  15  K     35.000000   102.000000      3      1      7   65.69%      39      0
  16  K     35.000000   102.000000      3      1     13   65.69%      39      0
  17  K     35.000000   102.000000      3     96      8   65.69%      58      0
  18  K     35.000000   102.000000      3      2     91   65.69%      39      0
b           47.000000   102.000000      4                 53.92%       0      0
  19  K     47.000000   102.000000      4     93     14   53.92%      52      0
  20  K     47.000000   102.000000      4     99    150   53.92%      59      0
  21  G     47.000000   102.000000      4     39     31   53.92%      41      0
  22  G     47.000000   102.000000      4     70    110   53.92%      55      0
Heuristic search started
Heuristic search stopped
 
Cuts in the matrix         : 39
Cut elements in the matrix : 1106

Performing root presolve...

Reduced problem has:     142 rows     204 columns      3141 elements
Presolve dropped   :       0 rows       0 columns       396 elements
Presolve tightened :         3 elements
Will try to keep branch and bound tree memory usage below 7.2GB

Starting root cutting & heuristics
 
 Its Type    BestSoln    BestBound   Sols    Add    Del     Gap     GInf   Time
   1  K     47.000000   102.000000      4     64     20   53.92%      42      0
   2  K     47.000000   102.000000      4     74    135   53.92%      40      0
Heuristic search started
Heuristic search stopped
 
Cuts in the matrix         : 22
Cut elements in the matrix : 663
 
Starting tree search.
Deterministic mode with up to 4 running threads and up to 8 tasks.
 
    Node     BestSoln    BestBound   Sols Active  Depth     Gap     GInf   Time
       1    47.000000   102.000000      4      2      1   53.92%      37      0
       2    47.000000   102.000000      4      2      2   53.92%      45      0
       3    47.000000   102.000000      4      2      2   53.92%      45      0
       4    47.000000   102.000000      4      2      3   53.92%      20      0
       5    47.000000   102.000000      4      2      3   53.92%      42      0
       6    47.000000   102.000000      4      2      4   53.92%      32      0
       7    47.000000   102.000000      4      5      4   53.92%      40      0
       8    47.000000   102.000000      4      8      3   53.92%      46      0
       9    47.000000   102.000000      4      8      3   53.92%      42      0
      10    47.000000   102.000000      4      8      4   53.92%      43      0
      21    47.000000   102.000000      4     14      9   53.92%      25      0
      31    47.000000   102.000000      4     14     15   53.92%      34      0
      55    47.000000   102.000000      4     14     27   53.92%      23      0
      78    47.000000   102.000000      4     36     28   53.92%      21      0
      91    47.000000   102.000000      4     55     10   53.92%      44      0
     101    47.000000   102.000000      4     55     15   53.92%      37      0
     208    47.000000   102.000000      4     55     22   53.92%      18      0
     320    47.000000   102.000000      4     55     24   53.92%      35      0
a    379    56.000000   102.000000      5     55     28   45.10%       0      1
B&B tree size: 2.1MB total
 
    Node     BestSoln    BestBound   Sols Active  Depth     Gap     GInf   Time
     420    56.000000   102.000000      5     96     16   45.10%      19      1
     526    56.000000   102.000000      5     96     22   45.10%      49      1
a    546    57.000000   102.000000      6     96     19   44.12%       0      1
     636    57.000000   102.000000      6    141     14   44.12%      25      1
     748    57.000000   102.000000      6    187     20   44.12%      11      1
a    834    58.000000   102.000000      7    187     21   43.14%       0      1
     852    58.000000   101.712666      7    238      1   42.98%       1      1
a    912    60.000000   101.712666      8    238     20   41.01%       0      1
     955    60.000000   101.712666      8    238     19   41.01%      22      1
    1066    60.000000   101.712666      8    291     26   41.01%      30      1
    1182    60.000000   101.712666      8    291     17   41.01%      36      1
    1283    60.000000   101.712666      8    291     19   41.01%      36      1
    1390    60.000000   101.712666      8    332     15   41.01%      26      1
    1498    60.000000   101.712666      8    374     22   41.01%      40      1
    1611    60.000000   101.712666      8    374     24   41.01%      34      1
    1716    60.000000   101.712666      8    374     15   41.01%      30      2
    1824    60.000000   101.712666      8    489     14   41.01%      23      2
    1927    60.000000   101.712666      8    489     17   41.01%      14      2
    2043    60.000000   101.712666      8    489     23   41.01%      25      2
    2143    60.000000   101.712666      8    489     13   41.01%      41      2
B&B tree size: 7.4MB total
 
    Node     BestSoln    BestBound   Sols Active  Depth     Gap     GInf   Time
    2258    60.000000   101.712666      8    489     24   41.01%      26      2
    2359    60.000000   101.712666      8    489     15   41.01%      25      2
    2464    60.000000   101.712666      8    489     24   41.01%      29      2
    2566    60.000000   101.712666      8    489     20   41.01%      48      2
    2668    60.000000   101.712666      8    489     24   41.01%      25      2
    2778    60.000000   101.712666      8    489     16   41.01%      40      2
    2881    60.000000   101.712666      8    489     28   41.01%      25      2
    2990    60.000000   101.712666      8    592     19   41.01%      32      2
    3109    60.000000   101.712666      8    592     17   41.01%      27      3
    3211    60.000000   101.712666      8    592     18   41.01%      23      3
    3319    60.000000   101.712666      8    592     20   41.01%      40      3
    3426    60.000000   101.712666      8    650     21   41.01%      21      3
    3540    60.000000   101.712666      8    873     17   41.01%      35      3
    3653    60.000000    97.146432      8   1013     20   38.24%      25      3
    3765    60.000000    97.146432      8   1144     14   38.24%      40      3
    3886    60.000000    97.146432      8   1144     25   38.24%      31      3
    3998    60.000000    97.146432      8   1226     16   38.24%      31      3
    4100    60.000000    97.146432      8   1226     23   38.24%      22      3
    4206    60.000000    97.146432      8   1226     16   38.24%      35      3
    4319    60.000000    97.146432      8   1226     22   38.24%      18      3
B&B tree size: 12MB total
 
    Node     BestSoln    BestBound   Sols Active  Depth     Gap     GInf   Time
    4429    60.000000    97.146432      8   1226     16   38.24%      43      3
    4537    60.000000    97.146432      8   1226     19   38.24%      16      3
    4644    60.000000    97.146432      8   1226     20   38.24%      31      3
    4752    60.000000    97.146432      8   1226     22   38.24%      33      3
    4872    60.000000    97.146432      8   1226     20   38.24%      21      3
    4979    60.000000    97.146432      8   1290     21   38.24%      34      4
    5086    60.000000    97.146432      8   1290     18   38.24%      28      4
    5187    60.000000    97.146432      8   1290     15   38.24%      27      4
    5288    60.000000    97.146432      8   1290     20   38.24%      29      4
    5403    60.000000    97.146432      8   1290     20   38.24%      19      4
    5513    60.000000    97.146432      8   1365     26   38.24%      23      4
    5614    60.000000    97.146432      8   1440     20   38.24%      34      4
    5724    60.000000    97.146432      8   1533     23   38.24%      26      4
    5841    60.000000    97.146432      8   1580     17   38.24%      29      4
    5960    60.000000    97.146432      8   1580     21   38.24%      37      4
    6061    60.000000    97.146432      8   1580     13   38.24%      38      4
    6165    60.000000    97.146432      8   1580     23   38.24%      35      4
    6289    60.000000    97.146432      8   1641     22   38.24%      25      4
    6412    60.000000    97.146432      8   1641     21   38.24%      43      4
    6513    60.000000    97.146432      8   1672     16   38.24%      22      4
B&B tree size: 17MB total
 
    Node     BestSoln    BestBound   Sols Active  Depth     Gap     GInf   Time
    6627    60.000000    97.146432      8   1672     16   38.24%      23      4
    6734    60.000000    97.146432      8   1672     19   38.24%      30      5
    6847    60.000000    97.146432      8   1672     17   38.24%      29      5
    6947    60.000000    97.146432      8   1672     16   38.24%      33      5
    7055    60.000000    97.146432      8   1672     16   38.24%      17      5
    7159    60.000000    97.146432      8   1733     18   38.24%      50      5
    7268    60.000000    97.146432      8   1733     19   38.24%      33      5
    7373    60.000000    89.580437      8   1929     20   33.02%      28      5
    7479    60.000000    89.580437      8   1961     16   33.02%      37      5
    7580    60.000000    89.580437      8   1988     15   33.02%      34      5
    7680    60.000000    89.580437      8   1988     10   33.02%      41      5
    7803    60.000000    89.580437      8   1988     23   33.02%      26      5
    7912    60.000000    89.580437      8   1988     17   33.02%      38      5
    8023    60.000000    89.580437      8   1988     18   33.02%      43      5
    8125    60.000000    89.580437      8   1988     25   33.02%      27      5
    8239    60.000000    89.580437      8   1993     20   33.02%      37      5
    8345    60.000000    89.580437      8   2041     19   33.02%      35      6
    8456    60.000000    89.580437      8   2041     27   33.02%      18      6
    8560    60.000000    89.580437      8   2041     20   33.02%      41      6
    8666    60.000000    89.580437      8   2041     24   33.02%      33      6
B&B tree size: 20MB total
 
    Node     BestSoln    BestBound   Sols Active  Depth     Gap     GInf   Time
    8774    60.000000    89.580437      8   2062     18   33.02%      32      6
    8875    60.000000    89.580437      8   2134     21   33.02%      21      6
    8979    60.000000    89.580437      8   2146     19   33.02%      38      6
    9081    60.000000    84.207425      8   2175     19   28.75%      30      6
    9181    60.000000    84.207425      8   2175     16   28.75%      34      6
    9282    60.000000    83.560241      8   2221     21   28.20%      20      6
    9392    60.000000    83.560241      8   2221     25   28.20%      32      6
    9506    60.000000    83.560241      8   2221     25   28.20%      22      6
    9624    60.000000    83.560241      8   2221     22   28.20%      37      6
    9727    60.000000    83.560241      8   2221     20   28.20%      25      6
    9838    60.000000    83.378964      8   2256     21   28.04%      34      6
    9955    60.000000    83.378964      8   2256     17   28.04%      26      6
   10067    60.000000    83.378964      8   2284     19   28.04%      29      7
   11070    60.000000    82.388889      8   2357     21   27.17%      26      7
   12077    60.000000    82.000000      8   2502     25   26.83%      24      8
   13099    60.000000    82.000000      8   2650     20   26.83%      19      8
   14105    60.000000    81.000000      8   2788     16   25.93%      35      9
   15106    60.000000    79.824561      8   2884     21   24.84%      29      9
   16117    60.000000    79.560160      8   2928     26   24.59%      20     10
   17131    60.000000    78.913504      8   2937     24   23.97%      20     10
B&B tree size: 29MB total
 
    Node     BestSoln    BestBound   Sols Active  Depth     Gap     GInf   Time
   18132    60.000000    78.216961      8   2989     23   23.29%      23     11
   19132    60.000000    78.045040      8   3004     17   23.12%      44     11
   20135    60.000000    78.000000      8   3068     16   23.08%      23     12
   21148    60.000000    76.337188      8   3039     23   21.40%      26     13
   22161    60.000000    76.000000      8   3051     18   21.05%      37     13
   23176    60.000000    75.030959      8   3037     22   20.03%      37     14
   24177    60.000000    75.000000      8   3023     17   20.00%      28     14
   25178    60.000000    74.839224      8   2993     21   19.83%      33     15
   26188    60.000000    74.022891      8   2930     21   18.94%      29     15
   27192    60.000000    74.000000      8   2910     25   18.92%      26     16
   28192    60.000000    74.000000      8   2934     23   18.92%      31     16
   29196    60.000000    73.433448      8   2898     18   18.29%      32     17
   30205    60.000000    72.868140      8   2843     18   17.66%      32     17
   31207    60.000000    72.111917      8   2722     24   16.80%      26     18
   32218    60.000000    72.000000      8   2625     21   16.67%      28     18
   33220    60.000000    71.003861      8   2506     20   15.50%      26     19
   34220    60.000000    70.500000      8   2383     21   14.89%      35     19
   35225    60.000000    70.000000      8   2243     22   14.29%      28     20
   36233    60.000000    69.000694      8   2091     27   13.04%       9     20
   37233    60.000000    69.000000      8   1949     17   13.04%      44     21
B&B tree size: 28MB total
 
    Node     BestSoln    BestBound   Sols Active  Depth     Gap     GInf   Time
   38236    60.000000    68.008772      8   1772     21   11.78%      33     21
   39237    60.000000    67.040280      8   1536     21   10.50%      27     21
   40246    60.000000    67.000000      8   1248     26   10.45%      27     22
   41252    60.000000    65.068870      8    868     20    7.79%      32     22
   42263    60.000000    63.262032      8    290     19    5.16%       8     22
 *** Search completed ***     Time:    23 Nodes:      42963
Number of integer feasible solutions found is 8
Best integer solution found is    60.000000
Best bound is    60.000000
Uncrunching matrix
